c This is the enc3 file generate by sty
p cnf 522 819
 1 2 0
 -1 -2 0
 3 4 0
 -3 -4 0
 5 6 0
 -5 -6 0
 7 8 0
 -7 -8 0
 9 10 0
 -9 -10 0
 11 12 0
 -11 -12 0
 13 14 0
 -13 -14 0
 15 16 0
 -15 -16 0
 17 18 0
 -17 -18 0
 19 20 0
 -19 -20 0
 21 22 0
 -21 -22 0
 23 24 0
 -23 -24 0
 25 26 0
 -25 -26 0
 27 28 0
 -27 -28 0
 29 30 0
 -29 -30 0
 31 32 0
 -31 -32 0
 33 34 0
 -33 -34 0
 35 36 0
 -35 -36 0
 37 38 0
 -37 -38 0
 39 40 0
 -39 -40 0
 41 42 0
 -41 -42 0
 43 44 0
 -43 -44 0
 45 46 0
 -45 -46 0
 47 48 0
 -47 -48 0
 49 50 0
 -49 -50 0
 51 52 0
 -51 -52 0
 53 54 0
 -53 -54 0
 55 56 0
 -55 -56 0
 57 58 0
 -57 -58 0
 59 60 0
 -59 -60 0
 61 62 0
 -61 -62 0
 63 64 0
 -63 -64 0
 65 66 0
 -65 -66 0
 67 68 0
 -67 -68 0
 69 70 0
 -69 -70 0
 71 72 0
 -71 -72 0
 73 74 0
 -73 -74 0
 75 76 0
 -75 -76 0
 77 78 0
 -77 -78 0
 79 80 0
 -79 -80 0
 81 82 0
 -81 -82 0
 83 84 0
 -83 -84 0
 85 86 0
 -85 -86 0
 87 88 0
 -87 -88 0
 89 90 0
 -89 -90 0
 91 92 0
 -91 -92 0
 93 94 0
 -93 -94 0
 95 96 0
 -95 -96 0
 97 98 0
 -97 -98 0
 99 100 0
 -99 -100 0
 101 102 0
 -101 -102 0
 103 104 0
 -103 -104 0
 105 106 0
 -105 -106 0
 107 108 0
 -107 -108 0
 109 110 0
 -109 -110 0
 111 112 0
 -111 -112 0
 113 114 0
 -113 -114 0
 115 116 0
 -115 -116 0
 117 118 0
 -117 -118 0
 119 120 0
 -119 -120 0
 121 122 0
 -121 -122 0
 123 124 0
 -123 -124 0
 125 126 0
 -125 -126 0
 127 128 0
 -127 -128 0
 129 130 0
 -129 -130 0
 131 132 0
 -131 -132 0
 133 134 0
 -133 -134 0
 135 136 0
 -135 -136 0
 137 138 0
 -137 -138 0
 139 140 0
 -139 -140 0
 141 142 0
 -141 -142 0
 143 144 0
 -143 -144 0
 145 146 0
 -145 -146 0
 147 148 0
 -147 -148 0
 149 150 0
 -149 -150 0
 151 152 0
 -151 -152 0
 153 154 0
 -153 -154 0
 155 156 0
 -155 -156 0
 157 158 0
 -157 -158 0
 159 160 0
 -159 -160 0
 161 162 0
 -161 -162 0
 163 164 0
 -163 -164 0
 165 166 0
 -165 -166 0
 167 168 0
 -167 -168 0
 169 170 0
 -169 -170 0
 171 172 0
 -171 -172 0
 173 174 0
 -173 -174 0
 175 176 0
 -175 -176 0
 177 178 0
 -177 -178 0
 179 180 0
 -179 -180 0
 181 182 0
 -181 -182 0
 183 184 0
 -183 -184 0
 185 186 0
 -185 -186 0
 187 188 0
 -187 -188 0
 189 190 0
 -189 -190 0
 191 192 0
 -191 -192 0
 193 194 0
 -193 -194 0
 195 196 0
 -195 -196 0
 197 198 0
 -197 -198 0
 199 200 0
 -199 -200 0
 -1 201 0
 -2 202 0
 -3 -2 203 0
 -3 -1 204 0
 -4 -1 205 0
 -4 -2 206 0
 -5 -4 207 0
 -5 -3 208 0
 -6 -3 209 0
 -6 -4 210 0
 -8 -6 211 0
 -8 -5 212 0
 -7 -5 213 0
 -7 -6 214 0
 -10 -8 215 0
 -10 -7 216 0
 -9 -7 217 0
 -9 -8 218 0
 -11 -10 219 0
 -11 -9 220 0
 -12 -9 221 0
 -12 -10 222 0
 -13 -11 223 0
 -14 -12 224 0
 -13 -12 225 0
 -14 -11 226 0
 -16 -14 0
 -16 -14 0
 -15 -13 0
 -18 -16 0
 -18 -16 0
 -17 -15 0
 -20 -17 227 0
 -19 -18 228 0
 -20 -18 229 0
 -19 -17 230 0
 -22 -2 0
 -22 -2 0
 -21 -1 0
 -23 -22 -4 0
 -23 -22 -4 0
 -24 -21 -4 0
 -23 -22 -4 0
 -24 -21 -4 0
 -24 -22 -3 0
 -23 -22 -4 0
 -24 -21 -4 0
 -24 -22 -3 0
 -23 -21 -3 0
 -26 -24 0
 -26 -24 0
 -25 -23 0
 -28 -25 -8 0
 -28 -25 -8 0
 -27 -26 0
 -28 -25 -8 0
 -27 -26 0
 -27 -7 0
 -30 -27 -10 231 0
 -29 -27 -9 232 0
 -30 -28 -10 233 0
 -30 -28 -9 234 0
 -29 -28 -9 235 0
 -29 -28 -10 236 0
 -30 -27 -9 237 0
 -29 -27 -10 238 0
 -31 -29 -12 239 0
 -31 -29 -11 240 0
 -31 -30 -12 241 0
 -31 -30 -11 242 0
 -32 -30 -11 243 0
 -32 -30 -12 244 0
 -32 -29 -11 245 0
 -32 -29 -12 246 0
 -34 -31 -13 247 0
 -33 -32 -13 248 0
 -33 -31 -14 249 0
 -33 -32 -14 250 0
 -34 -32 -14 251 0
 -34 -31 -14 252 0
 -34 -32 -13 253 0
 -33 -31 -13 254 0
 -36 -34 -16 255 0
 -35 -33 -15 256 0
 -36 -33 -16 257 0
 -35 -34 -15 258 0
 -36 -34 -15 259 0
 -35 -33 -16 260 0
 -36 -33 -15 261 0
 -35 -34 -16 262 0
 -38 -35 -17 263 0
 -38 -36 -18 264 0
 -38 -36 -17 265 0
 -38 -35 -18 266 0
 -37 -35 -18 267 0
 -37 -36 -17 268 0
 -37 -36 -18 269 0
 -37 -35 -17 270 0
 -39 -38 -19 0
 -39 -38 -19 0
 -39 -37 -20 0
 -39 -38 -19 0
 -39 -37 -20 0
 -40 -38 -20 0
 -39 -38 -19 0
 -39 -37 -20 0
 -40 -38 -20 0
 -40 -37 -19 0
 -42 -21 271 0
 -42 -22 272 0
 -41 -22 273 0
 -41 -21 274 0
 -44 -42 -23 275 0
 -43 -41 -23 276 0
 -43 -41 -24 277 0
 -44 -42 -24 278 0
 -43 -42 -24 279 0
 -44 -41 -24 280 0
 -44 -41 -23 281 0
 -43 -42 -23 282 0
 -46 -44 0
 -46 -44 0
 -45 -43 0
 -48 -46 -28 0
 -48 -46 -28 0
 -47 -45 0
 -48 -46 -28 0
 -47 -45 0
 -47 -27 0
 -50 -48 -30 283 0
 -49 -47 -29 284 0
 -49 -47 -30 285 0
 -50 -48 -29 286 0
 -49 -48 -29 287 0
 -50 -47 -30 288 0
 -50 -47 -29 289 0
 -49 -48 -30 290 0
 -51 -50 -32 0
 -51 -50 -32 0
 -52 -31 0
 -51 -50 -32 0
 -52 -31 0
 -52 -49 0
 -53 -52 -33 0
 -53 -52 -33 0
 -54 -34 0
 -53 -52 -33 0
 -54 -34 0
 -54 -51 0
 -55 -53 -35 291 0
 -56 -54 -36 292 0
 -56 -54 -35 293 0
 -55 -53 -36 294 0
 -56 -53 -36 295 0
 -55 -54 -35 296 0
 -55 -54 -36 297 0
 -56 -53 -35 298 0
 -57 -56 -37 299 0
 -58 -55 -37 300 0
 -57 -56 -38 301 0
 -58 -55 -38 302 0
 -57 -55 -38 303 0
 -58 -56 -38 304 0
 -57 -55 -37 305 0
 -58 -56 -37 306 0
 -60 -58 -39 0
 -60 -58 -39 0
 -59 -57 0
 -60 -58 -39 0
 -59 -57 0
 -59 -40 0
 -61 -42 0
 -61 -42 0
 -62 -41 0
 -64 -61 -43 307 0
 -64 -61 -44 308 0
 -63 -62 -44 309 0
 -64 -62 -43 310 0
 -63 -62 -43 311 0
 -64 -62 -44 312 0
 -63 -61 -44 313 0
 -63 -61 -43 314 0
 -65 -64 -45 315 0
 -66 -63 -45 316 0
 -65 -64 -46 317 0
 -65 -63 -46 318 0
 -66 -63 -46 319 0
 -66 -64 -46 320 0
 -65 -63 -45 321 0
 -66 -64 -45 322 0
 -67 -66 -48 0
 -67 -66 -48 0
 -68 -47 0
 -67 -66 -48 0
 -68 -47 0
 -68 -65 0
 -70 -67 -50 323 0
 -70 -67 -49 324 0
 -69 -68 -50 325 0
 -69 -68 -49 326 0
 -70 -68 -49 327 0
 -70 -68 -50 328 0
 -69 -67 -49 329 0
 -69 -67 -50 330 0
 -71 -70 -51 331 0
 -72 -69 -51 332 0
 -71 -70 -52 333 0
 -72 -69 -52 334 0
 -71 -69 -52 335 0
 -72 -70 -52 336 0
 -71 -69 -51 337 0
 -72 -70 -51 338 0
 -74 -71 0
 -74 -71 0
 -73 -72 0
 -75 -74 -56 0
 -75 -74 -56 0
 -76 -55 0
 -75 -74 -56 0
 -76 -55 0
 -76 -73 0
 -78 -76 -57 0
 -78 -76 -57 0
 -77 -75 0
 -78 -76 -57 0
 -77 -75 0
 -77 -58 0
 -80 -78 -59 0
 -80 -78 -59 0
 -79 -77 0
 -80 -78 -59 0
 -79 -77 0
 -79 -60 0
 -81 -62 0
 -81 -62 0
 -82 -61 0
 -84 -81 -63 339 0
 -84 -82 -64 340 0
 -83 -82 -63 341 0
 -83 -81 -64 342 0
 -84 -81 -64 343 0
 -84 -82 -63 344 0
 -83 -82 -64 345 0
 -83 -81 -63 346 0
 -86 -84 0
 -86 -84 0
 -86 -66 0
 -86 -84 0
 -86 -66 0
 -85 -83 -65 0
 -87 -85 -68 347 0
 -87 -85 -67 348 0
 -87 -86 -68 349 0
 -88 -86 -67 350 0
 -87 -86 -67 351 0
 -88 -86 -68 352 0
 -88 -85 -67 353 0
 -88 -85 -68 354 0
 -89 -88 -70 0
 -89 -88 -70 0
 -90 -69 0
 -89 -88 -70 0
 -90 -69 0
 -90 -87 0
 -91 -90 -71 0
 -91 -90 -71 0
 -92 -72 0
 -91 -90 -71 0
 -92 -72 0
 -92 -89 0
 -94 -92 -73 0
 -94 -92 -73 0
 -93 -91 0
 -94 -92 -73 0
 -93 -91 0
 -93 -74 0
 -96 -93 -76 355 0
 -95 -94 -75 356 0
 -95 -94 -76 357 0
 -95 -93 -75 358 0
 -96 -93 -75 359 0
 -96 -94 -76 360 0
 -96 -94 -75 361 0
 -95 -93 -76 362 0
 -98 -95 -77 0
 -98 -95 -77 0
 -97 -96 0
 -98 -95 -77 0
 -97 -96 0
 -97 -78 0
 -100 -97 -80 0
 -100 -97 -80 0
 -99 -98 0
 -100 -97 -80 0
 -99 -98 0
 -99 -79 0
 -101 -81 363 0
 -102 -82 364 0
 -101 -82 365 0
 -102 -81 366 0
 -103 -101 -84 0
 -103 -101 -84 0
 -104 -83 0
 -103 -101 -84 0
 -104 -83 0
 -104 -102 0
 -106 -104 -85 367 0
 -106 -103 -85 368 0
 -105 -104 -86 369 0
 -106 -103 -86 370 0
 -105 -103 -86 371 0
 -106 -104 -86 372 0
 -105 -103 -85 373 0
 -105 -104 -85 374 0
 -108 -105 -88 375 0
 -108 -106 -88 376 0
 -108 -106 -87 377 0
 -107 -105 -87 378 0
 -108 -105 -87 379 0
 -107 -106 -87 380 0
 -107 -106 -88 381 0
 -107 -105 -88 382 0
 -110 -108 -89 383 0
 -109 -107 -90 384 0
 -110 -107 -89 385 0
 -109 -108 -90 386 0
 -110 -108 -90 387 0
 -109 -107 -89 388 0
 -110 -107 -90 389 0
 -109 -108 -89 390 0
 -111 -110 -92 391 0
 -112 -110 -91 392 0
 -112 -109 -92 393 0
 -111 -109 -91 394 0
 -112 -109 -91 395 0
 -111 -109 -92 396 0
 -111 -110 -91 397 0
 -112 -110 -92 398 0
 -114 -111 0
 -114 -111 0
 -113 -112 0
 -115 -114 -95 399 0
 -116 -114 -96 400 0
 -116 -113 -96 401 0
 -115 -113 -95 402 0
 -116 -113 -95 403 0
 -115 -113 -96 404 0
 -115 -114 -96 405 0
 -116 -114 -95 406 0
 -118 -98 0
 -118 -98 0
 -117 -97 0
 -119 -117 -100 407 0
 -120 -118 -100 408 0
 -119 -117 -99 409 0
 -120 -118 -99 410 0
 -119 -118 -99 411 0
 -120 -117 -99 412 0
 -119 -118 -100 413 0
 -120 -117 -100 414 0
 -122 -101 415 0
 -122 -102 416 0
 -121 -102 417 0
 -121 -101 418 0
 -124 -121 -104 0
 -124 -121 -104 0
 -123 -122 0
 -124 -121 -104 0
 -123 -122 0
 -123 -103 0
 -126 -123 -106 419 0
 -125 -124 -105 420 0
 -126 -123 -105 421 0
 -126 -124 -106 422 0
 -125 -124 -106 423 0
 -125 -123 -105 424 0
 -126 -124 -105 425 0
 -125 -123 -106 426 0
 -127 -126 -108 427 0
 -128 -125 -107 428 0
 -128 -126 -107 429 0
 -128 -125 -108 430 0
 -127 -125 -108 431 0
 -127 -126 -107 432 0
 -127 -125 -107 433 0
 -128 -126 -108 434 0
 -129 -128 -110 0
 -129 -128 -110 0
 -130 -127 -110 0
 -129 -128 -110 0
 -130 -127 -110 0
 -130 -128 -109 0
 -129 -128 -110 0
 -130 -127 -110 0
 -130 -128 -109 0
 -129 -127 -109 0
 -131 -130 -112 0
 -131 -130 -112 0
 -132 -111 0
 -131 -130 -112 0
 -132 -111 0
 -132 -129 0
 -133 -131 -114 0
 -133 -131 -114 0
 -134 -113 0
 -133 -131 -114 0
 -134 -113 0
 -134 -132 0
 -136 -133 -115 435 0
 -136 -133 -116 436 0
 -136 -134 -116 437 0
 -136 -134 -115 438 0
 -135 -134 -115 439 0
 -135 -134 -116 440 0
 -135 -133 -116 441 0
 -135 -133 -115 442 0
 -137 -135 -118 443 0
 -138 -136 -117 444 0
 -137 -135 -117 445 0
 -138 -136 -118 446 0
 -137 -136 -118 447 0
 -138 -135 -117 448 0
 -137 -136 -117 449 0
 -138 -135 -118 450 0
 -139 -138 -120 451 0
 -139 -138 -119 452 0
 -139 -137 -120 453 0
 -140 -137 -119 454 0
 -139 -137 -119 455 0
 -140 -137 -120 456 0
 -140 -138 -119 457 0
 -140 -138 -120 458 0
 -142 -122 0
 -142 -122 0
 -141 -121 0
 -143 -141 -123 459 0
 -143 -142 -123 460 0
 -144 -141 -124 461 0
 -143 -142 -124 462 0
 -144 -142 -124 463 0
 -143 -141 -124 464 0
 -144 -142 -123 465 0
 -144 -141 -123 466 0
 -145 -144 -126 0
 -145 -144 -126 0
 -146 -125 0
 -145 -144 -126 0
 -146 -125 0
 -146 -143 0
 -147 -146 -128 0
 -147 -146 -128 0
 -148 -127 0
 -147 -146 -128 0
 -148 -127 0
 -148 -145 0
 -149 -148 -130 0
 -149 -148 -130 0
 -150 -147 -130 0
 -149 -148 -130 0
 -150 -147 -130 0
 -150 -148 -129 0
 -149 -148 -130 0
 -150 -147 -130 0
 -150 -148 -129 0
 -149 -147 -129 0
 -151 -149 -131 467 0
 -152 -149 -132 468 0
 -152 -150 -132 469 0
 -151 -150 -131 470 0
 -152 -150 -131 471 0
 -151 -150 -132 472 0
 -151 -149 -132 473 0
 -152 -149 -131 474 0
 -153 -152 -134 0
 -153 -152 -134 0
 -154 -133 0
 -153 -152 -134 0
 -154 -133 0
 -154 -151 0
 -156 -153 -136 0
 -156 -153 -136 0
 -155 -154 0
 -156 -153 -136 0
 -155 -154 0
 -155 -135 0
 -158 -156 -138 475 0
 -158 -155 -138 476 0
 -157 -156 -137 477 0
 -157 -155 -137 478 0
 -158 -155 -137 479 0
 -158 -156 -137 480 0
 -157 -155 -138 481 0
 -157 -156 -138 482 0
 -159 -158 -139 0
 -159 -158 -139 0
 -159 -157 -140 0
 -159 -158 -139 0
 -159 -157 -140 0
 -160 -158 -140 0
 -159 -158 -139 0
 -159 -157 -140 0
 -160 -158 -140 0
 -160 -157 -139 0
 -161 -142 0
 -161 -142 0
 -162 -141 0
 -164 -162 0
 -164 -162 0
 -164 -144 0
 -164 -162 0
 -164 -144 0
 -163 -161 -143 0
 -165 -164 -146 483 0
 -166 -163 -145 484 0
 -165 -163 -146 485 0
 -165 -164 -145 486 0
 -166 -164 -145 487 0
 -166 -163 -146 488 0
 -165 -163 -145 489 0
 -166 -164 -146 490 0
 -168 -166 -147 491 0
 -167 -165 -147 492 0
 -168 -166 -148 493 0
 -167 -165 -148 494 0
 -168 -165 -148 495 0
 -167 -166 -148 496 0
 -168 -165 -147 497 0
 -167 -166 -147 498 0
 -169 -168 -149 499 0
 -169 -168 -150 500 0
 -169 -167 -149 501 0
 -170 -167 -150 502 0
 -169 -167 -150 503 0
 -170 -167 -149 504 0
 -170 -168 -150 505 0
 -170 -168 -149 506 0
 -172 -169 0
 -172 -169 0
 -171 -170 0
 -174 -172 -153 507 0
 -173 -171 -153 508 0
 -174 -172 -154 509 0
 -174 -171 -154 510 0
 -173 -171 -154 511 0
 -173 -172 -154 512 0
 -174 -171 -153 513 0
 -173 -172 -153 514 0
 -176 -173 0
 -176 -173 0
 -175 -174 0
 -178 -158 0
 -178 -158 0
 -177 -157 0
 -179 -178 -160 0
 -179 -178 -160 0
 -180 -159 0
 -179 -178 -160 0
 -180 -159 0
 -180 -177 0
 -182 -162 0
 -182 -162 0
 -181 -161 0
 -184 -181 -163 0
 -184 -181 -163 0
 -183 -182 0
 -184 -181 -163 0
 -183 -182 0
 -183 -164 0
 -186 -165 0
 -186 -165 0
 -185 -166 0
 -187 -186 -167 0
 -187 -186 -167 0
 -188 -168 0
 -187 -186 -167 0
 -188 -168 0
 -188 -185 0
 -190 -188 0
 -190 -188 0
 -190 -170 0
 -190 -188 0
 -190 -170 0
 -189 -187 -169 0
 -192 -189 -172 0
 -192 -189 -172 0
 -191 -190 0
 -192 -189 -172 0
 -191 -190 0
 -191 -171 0
 -193 -192 -173 0
 -193 -192 -173 0
 -193 -191 -174 0
 -193 -192 -173 0
 -193 -191 -174 0
 -194 -192 -174 0
 -193 -192 -173 0
 -193 -191 -174 0
 -194 -192 -174 0
 -194 -191 -173 0
 -195 -194 -175 0
 -195 -194 -175 0
 -196 -176 0
 -195 -194 -175 0
 -196 -176 0
 -196 -193 0
 -198 -196 -178 515 0
 -198 -195 -177 516 0
 -198 -195 -178 517 0
 -198 -196 -177 518 0
 -197 -196 -177 519 0
 -197 -195 -178 520 0
 -197 -195 -177 521 0
 -197 -196 -178 522 0
 -199 -198 -179 0
 -199 -198 -179 0
 -200 -180 0
 -199 -198 -179 0
 -200 -180 0
 -200 -197 0
